(set-info :smt-lib-version 2.6)
(set-logic QF_SLIA)
(set-info :source |
Generated by: Dmitry Blotsky1, Federico Mora, Murphy Berzish, Yunhui Zheng, Ifaz Kabir, Vijay Ganesh, Zhengyang Lu
Generated on: 2018-01-24
Generator: StringFuzz
Application: Evaluate string solvers
Target solver: Z3str3, CVC4, Z3str2, Norn
Publications: Blotsky, D., Mora, F., Berzish, M., Zheng, Y., Kabir, I., & Ganesh, V. (2018). Stringfuzz: A fuzzer for string solvers. In CAV 2018.
Description: new instance generated by StringFuzz, a modular string and regex fuzzer
|)
(set-info :license "https://creativecommons.org/licenses/by/4.0/")
(set-info :category "random")
(set-info :status unknown)

(declare-fun var0 () String)
(assert (str.in_re var0 (re.++ (re.union (re.* (str.to_re "000")) (re.+ (str.to_re "111"))) (re.++ (re.* (re.+ (str.to_re "2"))) (re.++ (re.* (re.union (str.to_re "3") (str.to_re "444"))) (re.++ (re.+ (re.union (str.to_re "555") (str.to_re "6"))) (re.++ (re.+ (re.* (str.to_re "77"))) (re.++ (re.union (re.union (str.to_re "88") (str.to_re "9")) (re.* (str.to_re "aa"))) (re.++ (re.union (re.union (str.to_re "b") (str.to_re "cc")) (re.+ (str.to_re "d"))) (re.++ (re.union (re.* (str.to_re "e")) (re.+ (str.to_re "fff"))) (re.++ (re.* (re.union (str.to_re "gg") (str.to_re "hh"))) (re.++ (re.+ (re.* (str.to_re "i"))) (re.++ (re.union (re.+ (str.to_re "jjj")) (re.union (str.to_re "k") (str.to_re "ll"))) (re.++ (re.+ (re.* (str.to_re "mmm"))) (re.++ (re.* (re.+ (str.to_re "nnn"))) (re.++ (re.+ (re.+ (str.to_re "ooo"))) (re.++ (re.* (re.* (str.to_re "pp"))) (re.++ (re.union (re.union (str.to_re "qqq") (str.to_re "rrr")) (re.* (str.to_re "sss"))) (re.++ (re.union (re.* (str.to_re "tt")) (re.union (str.to_re "u") (str.to_re "v"))) (re.++ (re.* (re.* (str.to_re "ww"))) (re.++ (re.+ (re.+ (str.to_re "xx"))) (re.++ (re.+ (re.+ (str.to_re "yy"))) (re.++ (re.+ (re.* (str.to_re "zz"))) (re.union (re.+ (str.to_re "AA")) (re.+ (str.to_re "B"))))))))))))))))))))))))))
(check-sat)
(exit)
